(set-logic QF_S)
(declare-fun var0 () String)
(declare-fun var1 () String)
(declare-fun var2 () String)
(declare-fun var3 () String)
(declare-fun var4 () String)
(declare-fun var5 () String)
(declare-fun var6 () String)
(declare-fun var7 () String)
(declare-fun var8 () String)
(declare-fun var9 () String)
(declare-fun var10 () String)
(declare-fun var11 () String)
(declare-fun var12 () String)
(declare-fun var13 () String)
(declare-fun var14 () String)
(declare-fun var15 () String)
(declare-fun var16 () String)
(declare-fun var17 () String)
(declare-fun var18 () String)
(declare-fun var19 () String)
(declare-fun var20 () String)
(declare-fun var21 () String)
(declare-fun var22 () String)
(declare-fun var23 () String)
(declare-fun var24 () String)
(declare-fun var25 () String)
(declare-fun var26 () String)
(declare-fun var27 () String)
(declare-fun var28 () String)
(declare-fun var29 () String)
(declare-fun var30 () String)
(declare-fun var31 () String)
(declare-fun var32 () String)
(declare-fun var33 () String)
(declare-fun var34 () String)
(declare-fun var35 () String)
(declare-fun var36 () String)
(declare-fun var37 () String)
(declare-fun var38 () String)
(declare-fun var39 () String)
(declare-fun var40 () String)
(declare-fun var41 () String)
(declare-fun var42 () String)
(declare-fun var43 () String)
(declare-fun var44 () String)
(declare-fun var45 () String)
(declare-fun var46 () String)
(declare-fun var47 () String)
(declare-fun var48 () String)
(declare-fun var49 () String)
(declare-fun var50 () String)
(declare-fun var51 () String)
(declare-fun var52 () String)
(declare-fun var53 () String)
(declare-fun var54 () String)
(declare-fun var55 () String)
(declare-fun var56 () String)
(declare-fun var57 () String)
(declare-fun var58 () String)
(declare-fun var59 () String)
(declare-fun var60 () String)
(assert (= var0 (Concat var1 var2)))
(assert (= var2 (Concat var3 var4)))
(assert (= var4 (Concat var5 var6)))
(assert (= var6 (Concat var7 var8)))
(assert (= var8 (Concat var9 var10)))
(assert (= var10 (Concat var11 var12)))
(assert (= var12 (Concat var13 var14)))
(assert (= var14 (Concat var15 var16)))
(assert (= var16 (Concat var17 var18)))
(assert (= var18 (Concat var19 var20)))
(assert (= var20 (Concat var21 var22)))
(assert (= var22 (Concat var23 var24)))
(assert (= var24 (Concat var25 var26)))
(assert (= var26 (Concat var27 var28)))
(assert (= var28 (Concat var29 var30)))
(assert (= var30 (Concat var31 var32)))
(assert (= var32 (Concat var33 var34)))
(assert (= var34 (Concat var35 var36)))
(assert (= var36 (Concat var37 var38)))
(assert (= var38 (Concat var39 var40)))
(assert (= var40 (Concat var41 var42)))
(assert (= var42 (Concat var43 var44)))
(assert (= var44 (Concat var45 var46)))
(assert (= var46 (Concat var47 var48)))
(assert (= var48 (Concat var49 var50)))
(assert (= var50 (Concat var51 var52)))
(assert (= var52 (Concat var53 var54)))
(assert (= var54 (Concat var55 var56)))
(assert (= var56 (Concat var57 var58)))
(assert (= var58 (Concat var59 var60)))
(assert (= var0 "solution"))
(assert (= "H" (CharAt var54 718)))
(assert (= "p" (CharAt var59 467)))
(assert (= ")" (CharAt var56 984)))
(assert (= "n" (CharAt var31 732)))
(assert (= "A" (CharAt var47 487)))
(assert (= "@" (CharAt var1 318)))
(assert (= "\\" (CharAt var38 203)))
(assert (= "C" (CharAt var41 952)))
(assert (= "Y" (CharAt var21 430)))
(assert (= "5" (CharAt var22 989)))
(assert (= "a" (CharAt var48 652)))
(assert (= "X" (CharAt var18 464)))
(assert (= "k" (CharAt var10 245)))
(assert (= "\"" (CharAt var37 736)))
(assert (= "'" (CharAt var25 136)))
(assert (= "{" (CharAt var49 195)))
(assert (= "f" (CharAt var0 791)))
(assert (= "w" (CharAt var46 698)))
(assert (= "V" (CharAt var53 689)))
(assert (= "m" (CharAt var8 371)))
(assert (= "N" (CharAt var8 541)))
(assert (= "%" (CharAt var40 321)))
(assert (= "." (CharAt var40 173)))
(assert (= "%" (CharAt var9 338)))
(assert (= "W" (CharAt var2 172)))
(assert (= "V" (CharAt var41 443)))
(assert (= "q" (CharAt var9 451)))
(assert (= "b" (CharAt var32 432)))
(assert (= "|" (CharAt var29 916)))
(assert (= "6" (CharAt var57 577)))
(assert (= "y" (CharAt var23 600)))
(assert (= "@" (CharAt var22 651)))
(assert (= "'" (CharAt var20 422)))
(assert (= "@" (CharAt var16 592)))
(assert (= "S" (CharAt var10 602)))
(assert (= "/" (CharAt var33 336)))
(assert (= "T" (CharAt var32 547)))
(assert (= "{" (CharAt var6 299)))
(assert (= "d" (CharAt var25 40)))
(assert (= "{" (CharAt var60 888)))
(assert (= "p" (CharAt var41 488)))
(assert (= "\"" (CharAt var58 527)))
(assert (= ":" (CharAt var25 782)))
(assert (= "Q" (CharAt var16 648)))
(assert (= "l" (CharAt var17 905)))
(assert (= "_" (CharAt var41 348)))
(assert (= "2" (CharAt var20 266)))
(assert (= "H" (CharAt var10 16)))
(assert (= "+" (CharAt var23 653)))
(assert (= "u" (CharAt var47 608)))
(assert (= "w" (CharAt var54 311)))
(assert (= "\\" (CharAt var54 266)))
(assert (= "8" (CharAt var21 586)))
(assert (= "," (CharAt var0 54)))
(assert (= "j" (CharAt var29 435)))
(assert (= "8" (CharAt var58 329)))
(assert (= "(" (CharAt var7 387)))
(assert (= "~" (CharAt var22 881)))
(assert (= "(" (CharAt var11 71)))
(assert (= "@" (CharAt var0 273)))
(assert (= "I" (CharAt var1 205)))
(assert (= "c" (CharAt var37 83)))
(assert (= "b" (CharAt var52 80)))
(assert (= "B" (CharAt var60 758)))
(assert (= "&" (CharAt var39 224)))
(assert (= "-" (CharAt var54 61)))
(assert (= "0" (CharAt var53 169)))
(assert (= "m" (CharAt var24 989)))
(assert (= "!" (CharAt var18 363)))
(assert (= "`" (CharAt var55 68)))
(assert (= "V" (CharAt var50 742)))
(assert (= "d" (CharAt var8 400)))
(assert (= "@" (CharAt var10 124)))
(assert (= "I" (CharAt var2 192)))
(assert (= "2" (CharAt var24 525)))
(assert (= "(" (CharAt var31 246)))
(assert (= "<" (CharAt var30 984)))
(assert (= ":" (CharAt var23 331)))
(assert (= "s" (CharAt var51 85)))
(assert (= "M" (CharAt var38 11)))
(assert (= "R" (CharAt var11 113)))
(assert (= "S" (CharAt var1 595)))
(assert (= "M" (CharAt var4 757)))
(assert (= "C" (CharAt var45 718)))
(assert (= "j" (CharAt var60 121)))
(assert (= ";" (CharAt var27 338)))
(assert (= "h" (CharAt var36 267)))
(assert (= "w" (CharAt var18 700)))
(assert (= "`" (CharAt var22 399)))
(assert (= "5" (CharAt var31 974)))
(assert (= "'" (CharAt var18 595)))
(assert (= "a" (CharAt var5 36)))
(assert (= "`" (CharAt var9 943)))
(assert (= "-" (CharAt var2 525)))
(assert (= "Q" (CharAt var49 472)))
(assert (= "?" (CharAt var59 92)))
(assert (= "'" (CharAt var6 981)))
(assert (= ")" (CharAt var6 518)))
(assert (= "/" (CharAt var38 914)))
(assert (= "%" (CharAt var14 59)))
(assert (= "?" (CharAt var28 281)))
(assert (= "Q" (CharAt var7 636)))
(assert (= "7" (CharAt var10 840)))
(assert (= "_" (CharAt var29 148)))
(assert (= "r" (CharAt var28 557)))
(assert (= "g" (CharAt var52 475)))
(assert (= "P" (CharAt var57 79)))
(assert (= "u" (CharAt var43 270)))
(assert (= "J" (CharAt var36 146)))
(assert (= "/" (CharAt var12 640)))
(assert (= ")" (CharAt var40 844)))
(assert (= "z" (CharAt var32 845)))
(assert (= "v" (CharAt var54 427)))
(assert (= "C" (CharAt var56 318)))
(assert (= "O" (CharAt var50 941)))
(assert (= "t" (CharAt var13 588)))
(assert (= "x" (CharAt var37 505)))
(assert (= "7" (CharAt var15 732)))
(assert (= "Z" (CharAt var30 179)))
(assert (= "h" (CharAt var32 278)))
(assert (= "'" (CharAt var22 853)))
(assert (= "r" (CharAt var48 13)))
(assert (= "]" (CharAt var44 536)))
(assert (= "o" (CharAt var19 106)))
(assert (= "\"" (CharAt var22 69)))
(assert (= "\\" (CharAt var57 469)))
(assert (= "m" (CharAt var48 912)))
(assert (= "X" (CharAt var32 444)))
(assert (= "`" (CharAt var37 444)))
(assert (= "J" (CharAt var3 275)))
(assert (= "b" (CharAt var57 740)))
(assert (= "0" (CharAt var0 753)))
(assert (= "F" (CharAt var51 28)))
(assert (= "l" (CharAt var43 884)))
(assert (= "L" (CharAt var40 769)))
(assert (= "4" (CharAt var10 19)))
(assert (= "m" (CharAt var29 663)))
(assert (= "d" (CharAt var52 818)))
(assert (= "k" (CharAt var15 935)))
(assert (= "2" (CharAt var32 121)))
(assert (= "$" (CharAt var52 355)))
(assert (= "n" (CharAt var47 250)))
(assert (= "-" (CharAt var20 723)))
(assert (= "y" (CharAt var55 444)))
(assert (= "Y" (CharAt var59 126)))
(assert (= "5" (CharAt var59 98)))
(assert (= "A" (CharAt var3 237)))
(assert (= "r" (CharAt var24 667)))
(assert (= "0" (CharAt var32 62)))
(assert (= "`" (CharAt var37 469)))
(assert (= "-" (CharAt var21 883)))
(assert (= "-" (CharAt var12 28)))
(assert (= "u" (CharAt var53 690)))
(assert (= "1" (CharAt var60 936)))
(assert (= "<" (CharAt var22 194)))
(assert (= "J" (CharAt var48 805)))
(assert (= "1" (CharAt var34 851)))
(assert (= "*" (CharAt var20 294)))
(assert (= "=" (CharAt var9 557)))
(assert (= "W" (CharAt var48 527)))
(assert (= "%" (CharAt var52 146)))
(assert (= ")" (CharAt var38 960)))
(assert (= "_" (CharAt var30 187)))
(assert (= "_" (CharAt var24 986)))
(assert (= "-" (CharAt var7 190)))
(assert (= "P" (CharAt var41 361)))
(assert (= "q" (CharAt var3 579)))
(assert (= "H" (CharAt var24 253)))
(assert (= "C" (CharAt var51 810)))
(assert (= "B" (CharAt var53 536)))
(assert (= "B" (CharAt var31 772)))
(assert (= "m" (CharAt var22 46)))
(assert (= "g" (CharAt var49 896)))
(assert (= "z" (CharAt var29 708)))
(assert (= "!" (CharAt var58 169)))
(assert (= "_" (CharAt var19 391)))
(assert (= "u" (CharAt var10 217)))
(assert (= "8" (CharAt var52 205)))
(assert (= "&" (CharAt var18 569)))
(assert (= "q" (CharAt var29 70)))
(assert (= "h" (CharAt var34 721)))
(assert (= "m" (CharAt var30 676)))
(assert (= "J" (CharAt var7 186)))
(assert (= "t" (CharAt var36 265)))
(assert (= "q" (CharAt var17 972)))
(assert (= "u" (CharAt var0 114)))
(assert (= "a" (CharAt var21 191)))
(assert (= "o" (CharAt var27 624)))
(assert (= "@" (CharAt var9 585)))
(assert (= "6" (CharAt var53 904)))
(assert (= "V" (CharAt var9 984)))
(assert (= "k" (CharAt var46 905)))
(assert (= ")" (CharAt var22 215)))
(assert (= "d" (CharAt var46 384)))
(assert (= ":" (CharAt var27 477)))
(assert (= "1" (CharAt var53 227)))
(assert (= "P" (CharAt var24 929)))
(assert (= "," (CharAt var30 605)))
(assert (= "`" (CharAt var23 308)))
(assert (= "(" (CharAt var3 123)))
(assert (= "o" (CharAt var15 864)))
(assert (= "(" (CharAt var5 869)))
(assert (= ")" (CharAt var21 129)))
(assert (= "m" (CharAt var29 572)))
(assert (= "~" (CharAt var20 440)))
(assert (= "$" (CharAt var42 376)))
(assert (= "l" (CharAt var1 569)))
(assert (= "@" (CharAt var39 93)))
(assert (= "%" (CharAt var59 359)))
(assert (= "h" (CharAt var38 993)))
(assert (= "+" (CharAt var60 712)))
(assert (= "I" (CharAt var44 509)))
(assert (= "R" (CharAt var4 834)))
(assert (= "f" (CharAt var25 927)))
(assert (= "d" (CharAt var45 817)))
(assert (= "\"" (CharAt var21 937)))
(assert (= "r" (CharAt var59 518)))
(assert (= ";" (CharAt var8 646)))
(assert (= "]" (CharAt var30 241)))
(assert (= "1" (CharAt var29 400)))
(assert (= "i" (CharAt var6 2)))
(assert (= "q" (CharAt var2 577)))
(assert (= "S" (CharAt var35 658)))
(assert (= "l" (CharAt var3 466)))
(assert (= "*" (CharAt var57 998)))
(assert (= "y" (CharAt var16 909)))
(assert (= "Y" (CharAt var16 771)))
(assert (= "#" (CharAt var6 814)))
(assert (= "l" (CharAt var58 683)))
(assert (= "x" (CharAt var19 739)))
(assert (= "O" (CharAt var21 101)))
(assert (= "D" (CharAt var22 642)))
(assert (= "j" (CharAt var60 158)))
(assert (= "R" (CharAt var12 879)))
(assert (= "w" (CharAt var25 726)))
(assert (= "\\" (CharAt var7 719)))
(assert (= "h" (CharAt var28 816)))
(assert (= "%" (CharAt var41 558)))
(assert (= "6" (CharAt var3 942)))
(assert (= "n" (CharAt var60 470)))
(assert (= "N" (CharAt var15 634)))
(check-sat)